NAME : att48.tsp
COMMENT : Optimal tour for att48.tsp
TYPE : TOUR
DIMENSION : 48
Total Length: 33907.33591817689
TOUR_SECTION
1
40
15
12
11
23
3
22
16
41
34
29
2
26
4
35
45
10
24
42
5
48
39
32
21
25
14
13
47
20
33
46
36
30
43
17
27
19
37
6
28
7
18
44
31
38
9
8
-1
EOF
